0 1
0 4
0 5
0 15
0 25
1 4
1 22
1 24
2 31
3 15
3 17
3 25
4 11
4 12
4 15
4 25
5 10
5 21
5 27
6 17
7 8
7 17
7 28
8 9
9 11
9 20
10 15
10 18
10 21
10 23
11 14
11 18
11 22
11 31
12 16
12 26
12 29
12 31
13 18
14 15
14 22
14 24
14 27
15 22
15 24
15 25
16 22
16 23
16 25
17 19
17 28
18 23
18 25
18 29
18 31
19 22
19 28
20 22
22 30
26 29
